20 7
42 55 59 41 124 47 49
2 5 4 5 1 4 1 2 2 5 5 2 4 2 5 5 5 1 4 5
10 12 16 10 38 12 11
10 10 15 12 9 5 9
7 6 12 8 6 4 9
10 9 14 4 1 11 16
7 6 10 2 6 10 14
6 7 10 13 12 1 4
13 11 15 4 7 15 20
10 10 15 12 9 5 9
15 15 20 15 10 11 14
14 13 19 9 4 12 17
12 11 16 7 2 11 16
10 9 14 5 1 9 14
11 10 9 11 16 16 19
9 7 11 1 6 11 16
4 5 4 13 15 7 7
8 7 12 4 3 8 13
12 12 17 13 9 8 11
16 15 18 7 10 19 24
8 9 4 14 18 14 15
4 4 9 7 7 4 9
9 9 14 10 7 6 10
